5 5
1 38 2 13 4 54 3 44 0 97
4 13 0 25 2 24 1 29 3 70
3 18 1 92 2 5 4 18 0 63
1 37 2 71 0 55 3 73 4 99
4 12 3 52 0 57 1 46 2 44
-1
0 3 5
0 1 2 4 5
0 1 2 5
0 1 2 4 5
0 1 3 5
-2
134 388
14 53 143 229
25 160 228
50 121 272 499
16 154 324

373 7
6 22 17 4 14
0 15 8 11 23
7 1 16 12 24
10 21 3 18 9
5 20 2 13 19
